p cnf 859 1183
c ind 590 591 592 605 612 638 699 700 713 720 0
c ind 724 726 729 745 747 750 762 763 782 784 0
c ind 788 799 800 804 805 806 810 812 844 826 0
c ind 835 849 830 840 857 583 698 843 613 825 0
c ind 834 848 829 839 625 856 584 585 697 588 0
c ind 589 696 794 795 793 792 791 813 842 824 0
c ind 833 847 828 838 855 803 841 823 832 846 0
c ind 827 837 854 801 802 818 822 852 790 789 0
c ind 811 798 787 809 807 808 796 797 786 785 0
c ind 778 820 850 819 821 851 831 845 836 853 0
c ind 586 587 815 783 781 779 780 777 770 769 0
c ind 776 816 775 774 773 772 771 768 767 817 0
c ind 766 765 764 582 757 756 754 755 753 752 0
c ind 814 758 759 751 749 760 748 761 746 744 0
c ind 742 743 741 740 739 738 737 736 735 733 0
c ind 734 732 731 730 728 727 725 723 721 722 0
c ind 703 719 714 718 715 716 710 717 712 708 0
c ind 709 711 707 702 706 704 705 701 695 688 0
c ind 680 694 693 692 691 674 673 672 690 671 0
c ind 689 670 669 668 687 686 685 684 683 595 0
c ind 682 681 679 678 677 676 675 667 660 652 0
c ind 666 665 664 663 646 645 644 662 643 661 0
c ind 642 641 640 659 658 657 656 655 654 653 0
c ind 651 650 649 648 647 639 637 635 636 626 0
c ind 627 634 633 632 631 630 628 629 622 621 0
c ind 623 624 620 619 618 617 615 616 614 611 0
c ind 610 606 607 608 609 602 604 601 600 603 0
c ind 594 599 593 598 596 597 1 0
c ret 542 543 544 545 546 547 548 549 550 551 0
c ret 552 553 554 555 277 556 557 558 559 283 0
c ret 284 560 285 286 287 561 288 562 289 290 0
c ret 291 292 563 564 293 294 295 296 297 298 0
c ret 299 300 301 565 302 566 303 567 568 304 0
c ret 305 569 306 307 308 570 309 310 571 311 0
c ret 312 572 313 573 314 574 575 315 316 317 0
c ret 318 319 278 576 320 321 322 323 324 577 0
c ret 325 326 327 328 578 329 579 580 330 331 0
c ret 581 332 333 334 335 336 337 338 339 340 0
c ret 341 342 343 344 345 346 347 348 349 350 0
c ret 351 352 353 354 355 356 357 358 359 360 0
c ret 279 361 362 363 364 365 366 367 368 369 0
c ret 370 371 372 373 374 375 376 377 378 379 0
c ret 380 381 382 383 384 385 386 387 388 389 0
c ret 390 391 392 393 394 395 396 397 398 399 0
c ret 400 280 401 402 403 404 405 406 407 408 0
c ret 409 410 411 412 413 414 415 416 417 418 0
c ret 419 420 421 422 423 424 425 426 427 428 0
c ret 429 430 431 432 433 434 435 436 437 438 0
c ret 439 440 441 442 443 444 445 446 447 448 0
c ret 449 450 451 452 453 454 455 456 457 458 0
c ret 459 460 461 462 463 464 465 466 467 468 0
c ret 469 470 471 281 472 473 474 475 476 477 0
c ret 478 479 480 481 482 483 484 485 486 487 0
c ret 488 489 490 491 492 493 494 495 496 497 0
c ret 498 499 500 501 502 503 504 505 506 507 0
c ret 508 509 510 282 511 512 513 514 515 516 0
c ret 517 518 519 520 521 522 523 524 525 526 0
c ret 527 528 529 530 531 532 533 534 535 536 0
c ret 537 538 539 540 541 0
2 3 5 -273 0
2 5 272 -273 0
-2 273 0
-2 -5 0
-2 -3 -272 0
3 -4 0
3 518 -525 0
3 -518 -524 0
-3 4 -518 524 0
-3 4 518 525 0
4 509 0
4 -510 -516 0
4 510 -517 0
-4 -509 510 517 0
-4 -509 -510 516 0
5 6 -56 -100 -164 0
5 -6 56 -100 -164 0
-5 164 0
-5 6 56 0
-5 100 0
-5 -6 -56 0
6 7 -11 0
6 7 50 0
-6 -7 0
-6 11 -50 0
7 -8 -9 0
-4 7 -9 0
-7 9 0
4 -7 8 0
-4 8 0
8 -518 524 0
8 518 525 0
4 -8 -518 -524 0
4 -8 518 -525 0
-4 9 -10 0
-3 9 -10 0
-9 10 0
3 4 -9 0
10 509 0
10 -510 516 0
10 510 517 0
-10 -509 510 -517 0
-10 -509 -510 -516 0
11 -12 -49 -559 0
11 12 -13 -49 0
-11 49 0
-11 -12 559 0
-11 12 13 0
12 504 -506 0
-12 -504 0
-12 506 0
13 -14 -558 0
13 14 -15 0
-13 -14 558 0
-13 14 15 0
14 476 -478 0
-14 -476 0
-14 478 0
15 16 41 48 0
15 16 41 -44 0
-15 -16 0
-15 -41 0
-15 44 -48 0
16 -39 277 -452 0
16 17 277 452 0
-16 -277 0
-16 39 -452 0
-16 -17 452 0
17 -18 -555 0
-17 555 0
-17 18 0
18 19 -23 0
-18 -19 0
-18 23 0
19 -20 -309 0
19 -22 -309 0
19 -21 -309 0
-19 309 0
-19 20 21 22 0
20 -310 311 312 0
-20 310 0
-20 -312 0
-20 -311 0
21 315 318 319 0
-21 -315 0
-21 -319 0
-21 -318 0
22 -315 316 317 0
-22 315 0
-22 -317 0
-22 -316 0
23 24 -31 0
23 24 34 -342 0
-23 -24 0
-23 31 -34 0
-23 31 342 0
24 -25 28 0
24 28 363 0
-24 -28 0
-24 25 -363 0
25 -27 366 369 0
25 -26 -27 366 0
-25 -366 0
-25 27 0
-25 26 -369 0
26 367 -368 0
-26 -367 0
-26 368 0
27 364 365 0
-27 -364 0
-27 -365 0
26 -27 28 29 -30 0
27 -28 0
-28 -29 0
-26 -28 0
-28 30 0
29 375 376 0
29 375 383 384 0
-29 -375 0
-29 -376 -383 0
-29 -376 -384 0
30 -363 366 369 -370 0
-30 370 0
-30 -369 0
-30 363 0
-30 -366 0
31 32 -335 0
31 33 -335 -341 0
-31 335 0
-31 -32 341 0
-31 -32 -33 0
32 336 337 338 0
-32 -336 0
-32 -338 0
-32 -337 0
33 339 -340 0
-33 -339 0
-33 340 0
34 35 37 0
-34 -35 0
-34 -37 0
35 -36 341 -347 0
-35 36 0
-35 347 0
-35 -341 0
-32 33 36 -335 -342 0
32 -36 0
-33 -36 0
-36 335 0
-36 342 0
-36 37 -38 -355 0
-36 37 -38 -356 0
-37 38 0
36 -37 0
-37 355 356 0
38 341 347 -348 0
-38 348 0
-38 -347 0
-38 -341 0
39 -40 556 0
17 39 40 0
-39 -40 -556 0
-17 -39 40 0
40 418 -420 0
-40 -418 0
-40 420 0
41 -42 -43 -462 0
41 -42 -43 -463 0
-41 43 0
-41 42 0
-41 462 463 0
42 465 466 467 468 0
-42 -468 0
-42 -467 0
-42 -465 0
-42 -466 0
43 -459 -460 -461 464 0
-43 461 0
-43 -464 0
-43 459 0
-43 460 0
39 44 -45 0
-39 -44 0
-44 45 0
45 46 47 0
-45 -46 0
-45 -47 0
46 431 432 433 0
-46 -431 0
-46 -433 0
-46 -432 0
47 439 -441 0
-47 -439 0
-47 441 0
47 48 -277 0
48 -277 557 0
-48 277 0
-47 -48 -557 0
49 -473 480 0
-49 473 0
-49 -480 0
50 -51 -473 0
13 15 50 0
13 50 -473 0
15 50 -51 0
-15 -50 473 0
-13 -50 51 0
51 53 480 0
51 -52 53 0
51 53 473 0
-51 -53 0
-51 52 -473 -480 0
52 -481 482 0
-52 481 0
-52 -482 0
53 54 -55 0
-53 -54 0
-53 55 0
54 484 -485 -486 487 0
-54 -484 0
-54 -487 0
-54 486 0
-54 485 0
55 -473 -480 -481 482 0
-55 481 0
-55 -482 0
-55 473 0
-55 480 0
56 89 94 -778 0
56 57 89 94 0
-56 -94 0
-56 -89 0
-56 -57 778 0
57 58 81 88 0
57 58 81 -84 0
-57 -58 0
-57 -81 0
-57 84 -88 0
58 -79 582 -757 0
58 59 582 757 0
-58 -582 0
-58 79 -757 0
-58 -59 757 0
59 -60 -831 0
-59 831 0
-59 60 0
60 -61 75 0
-60 61 0
-60 -75 0
61 -68 69 0
61 62 69 -647 0
-61 -69 0
-61 -62 68 0
-61 68 647 0
62 63 0
62 66 -646 0
62 66 652 0
-62 -63 -66 0
-62 -63 646 -652 0
63 -64 65 -640 -647 0
-63 64 0
-63 -65 0
-63 640 0
-63 647 0
64 641 642 643 0
-64 -641 0
-64 -643 0
-64 -642 0
65 644 -645 0
-65 -644 0
-65 645 0
66 67 646 652 -653 0
-66 -646 0
-66 -67 0
-66 653 0
-66 -652 0
67 660 661 0
-67 -660 0
-67 -661 0
64 68 -640 0
65 68 -640 -646 0
-68 640 0
-64 -68 646 0
-64 -65 -68 0
69 71 74 0
69 71 -73 0
69 70 71 0
-69 -71 0
-69 -70 73 -74 0
70 669 670 671 0
-70 -669 0
-70 -671 0
-70 -670 0
70 71 -668 0
71 72 -668 -674 0
-71 668 0
-70 -71 674 0
-70 -71 -72 0
72 672 -673 0
-72 -672 0
-72 673 0
73 680 681 0
73 680 688 689 0
-73 -680 0
-73 -681 -688 0
-73 -681 -689 0
72 74 -668 674 -675 0
-74 675 0
-72 -74 0
-74 668 0
-74 -674 0
75 -76 -614 0
75 -78 -614 0
75 -77 -614 0
-75 614 0
-75 76 77 78 0
76 -615 616 617 0
-76 615 0
-76 -617 0
-76 -616 0
77 620 623 624 0
-77 -620 0
-77 -624 0
-77 -623 0
78 -620 621 622 0
-78 620 0
-78 -622 0
-78 -621 0
79 -80 832 0
59 79 80 0
-79 -80 -832 0
-59 -79 80 0
80 723 -725 0
-80 -723 0
-80 725 0
81 -82 -83 -767 0
81 -82 -83 -768 0
-81 83 0
-81 82 0
-81 767 768 0
82 770 771 772 773 0
-82 -773 0
-82 -772 0
-82 -770 0
-82 -771 0
83 -764 -765 -766 769 0
-83 766 0
-83 -769 0
-83 764 0
-83 765 0
79 84 -85 0
-79 -84 0
-84 85 0
85 86 87 0
-85 -86 0
-85 -87 0
86 744 -746 0
-86 -744 0
-86 746 0
87 736 737 738 0
-87 -736 0
-87 -738 0
-87 -737 0
86 88 -582 0
88 -582 833 0
-88 582 0
-86 -88 -833 0
89 -90 -93 -835 0
89 90 -91 -93 0
-89 93 0
-89 -90 835 0
-89 90 91 0
90 809 -811 0
-90 -809 0
-90 811 0
91 -92 -834 0
-57 91 92 0
-91 -92 834 0
57 -91 92 0
92 781 -783 0
-92 -781 0
-92 783 0
93 -778 785 0
-93 778 0
-93 -785 0
-91 94 95 0
91 -94 0
-94 -95 0
95 97 785 0
95 -96 97 0
95 97 778 0
-95 -97 0
-95 96 -778 -785 0
96 -786 787 0
-96 786 0
-96 -787 0
97 98 -99 0
-97 -98 0
-97 99 0
98 789 -790 -791 792 0
-98 -789 0
-98 -792 0
-98 791 0
-98 790 0
99 -778 -785 -786 787 0
-99 786 0
-99 -787 0
-99 778 0
-99 785 0
100 101 -113 -125 0
100 -101 113 -125 0
-100 125 0
-100 101 113 0
-100 -101 -113 0
7 101 -111 0
7 101 -110 0
7 101 -102 0
-7 -101 0
-101 102 110 111 0
102 105 -106 0
-45 102 103 -106 0
-102 106 0
-102 -103 -105 0
45 -102 -105 0
-40 103 570 0
40 103 104 0
-40 -103 -570 0
40 -103 -104 0
-18 104 -569 0
-104 569 0
18 -104 0
47 105 -277 0
105 -277 571 0
-105 277 0
-47 -105 -571 0
106 -107 109 0
-106 107 0
-106 -109 0
41 107 473 0
14 41 107 108 0
-41 -107 0
-107 -108 -473 0
-14 -107 -473 0
-12 53 108 480 0
-52 53 108 -480 0
-53 -108 0
52 -108 -480 0
12 -108 480 0
-103 109 277 -452 0
104 109 277 452 0
-109 -277 0
103 -109 -452 0
-104 -109 452 0
-12 -49 110 -573 0
-110 573 0
12 -110 0
49 -110 0
-14 111 -112 -572 0
-111 572 0
14 -111 0
-111 112 0
108 112 -473 0
-112 473 0
-108 -112 0
113 -114 -123 0
113 -123 778 0
-113 123 0
-113 114 -778 0
114 115 116 0
114 117 849 0
114 115 117 0
114 116 849 0
-114 -115 -849 0
-114 -116 -117 0
-90 115 785 0
-115 -785 0
90 -115 0
116 -785 -787 0
90 116 785 0
116 -785 786 0
-90 -116 785 0
-116 -785 -786 787 0
-92 117 -848 0
81 92 117 -118 0
92 -117 118 0
-92 -117 848 0
-81 92 -117 0
118 121 122 0
-85 118 119 121 0
-118 -121 0
85 -118 -122 0
-118 -119 -122 0
-80 119 846 0
80 119 120 0
-80 -119 -846 0
80 -119 -120 0
-60 120 -845 0
-120 845 0
60 -120 0
-119 121 582 -757 0
120 121 582 757 0
-121 -582 0
119 -121 -757 0
-120 -121 757 0
86 122 -582 0
122 -582 847 0
-122 582 0
-86 -122 -847 0
117 118 123 0
97 123 124 0
117 123 124 0
97 118 123 0
-97 -117 -123 0
-118 -123 -124 0
81 124 778 0
-124 -778 0
-81 -124 0
125 126 -135 -154 0
125 -126 135 -144 0
125 126 -135 -144 0
125 -126 135 -154 0
-125 -126 -135 0
-125 126 135 0
-125 144 154 0
7 126 -127 0
7 126 134 0
-7 -126 0
-126 127 -134 0
12 -49 127 -128 0
-12 -49 127 -554 0
49 -127 0
12 -127 128 0
-12 -127 554 0
-14 128 -553 0
14 128 -129 0
-14 -128 553 0
14 -128 129 0
41 129 130 133 0
41 129 130 -132 0
-41 -129 0
-129 -130 0
-129 132 -133 0
130 -131 277 -452 0
18 130 277 452 0
-130 -277 0
-130 131 -452 0
-18 -130 452 0
-40 131 551 0
18 40 131 0
-40 -131 -551 0
-18 40 -131 0
-45 131 132 0
45 -132 0
-131 -132 0
47 133 -277 0
133 -277 552 0
-133 277 0
-47 -133 -552 0
-51 129 134 0
128 134 -473 0
-51 134 -473 0
128 129 134 0
51 -128 -134 0
-129 -134 473 0
135 141 143 -778 0
135 136 141 143 0
-135 -143 0
-135 -141 0
-135 -136 778 0
81 136 137 140 0
81 136 137 -139 0
-81 -136 0
-136 -137 0
-136 139 -140 0
137 -138 582 -757 0
60 137 582 757 0
-137 -582 0
-137 138 -757 0
-60 -137 757 0
-80 138 827 0
60 80 138 0
-80 -138 -827 0
-60 80 -138 0
-85 138 139 0
85 -139 0
-138 -139 0
86 140 -582 0
140 -582 828 0
-140 582 0
-86 -140 -828 0
90 -93 141 -142 0
-90 -93 141 -830 0
93 -141 0
90 -141 142 0
-90 -141 830 0
-92 142 -829 0
92 -136 142 0
-92 -142 829 0
92 136 -142 0
95 -142 143 0
-95 -143 0
142 -143 0
7 144 -145 0
7 144 153 0
-7 -144 0
-144 145 -153 0
12 -49 145 -146 0
-12 -49 145 -550 0
49 -145 0
12 -145 146 0
-12 -145 550 0
-14 146 -549 0
14 146 -147 0
-14 -146 549 0
14 -146 147 0
41 147 148 152 0
41 147 148 -151 0
-41 -147 0
-147 -148 0
-147 151 -152 0
148 149 -277 548 0
47 148 149 -277 0
-148 277 0
-148 -149 0
-47 -148 -548 0
-45 149 150 0
45 -149 0
-149 -150 0
18 40 150 0
-40 150 547 0
40 150 282 0
-40 -150 -547 0
-18 40 -150 -282 0
-18 40 151 -282 0
-18 151 -282 452 0
18 -151 0
-151 282 0
-40 -151 -452 0
152 277 547 0
152 277 452 0
40 152 277 0
-152 -277 0
-40 -152 -452 -547 0
-51 147 153 0
146 153 -473 0
-51 153 -473 0
146 147 153 0
51 -146 -153 0
-147 -153 473 0
154 161 163 -778 0
154 155 161 163 0
-154 -163 0
-154 -161 0
-154 -155 778 0
81 155 156 160 0
81 155 156 -159 0
-81 -155 0
-155 -156 0
-155 159 -160 0
156 157 -582 824 0
86 156 157 -582 0
-156 582 0
-156 -157 0
-86 -156 -824 0
-85 157 158 0
85 -157 0
-157 -158 0
60 80 158 0
-80 158 823 0
80 158 587 0
-80 -158 -823 0
-60 80 -158 -587 0
-60 80 159 -587 0
-60 159 -587 757 0
60 -159 0
-159 587 0
-80 -159 -757 0
160 582 823 0
160 582 757 0
80 160 582 0
-160 -582 0
-80 -160 -757 -823 0
90 -93 161 -162 0
-90 -93 161 -826 0
93 -161 0
90 -161 162 0
-90 -161 826 0
-92 162 -825 0
92 -155 162 0
-92 -162 825 0
92 155 -162 0
95 -162 163 0
-95 -163 0
162 -163 0
164 165 -183 -225 0
164 174 -183 -225 0
-164 225 0
-164 183 0
-164 -165 -174 0
7 165 -173 0
7 165 -172 0
7 165 -166 0
-7 -165 0
-165 166 172 173 0
166 169 -170 0
-45 166 167 -170 0
-166 170 0
-166 -167 -169 0
45 -166 -169 0
-40 167 561 0
40 167 168 0
-40 -167 -561 0
40 -167 -168 0
-18 168 -560 0
-168 560 0
18 -168 0
47 169 -277 0
169 -277 562 0
-169 277 0
-47 -169 -562 0
-107 170 171 0
107 -170 0
-170 -171 0
-167 171 277 -452 0
168 171 277 452 0
-171 -277 0
167 -171 -452 0
-168 -171 452 0
-12 -49 172 -564 0
-172 564 0
12 -172 0
49 -172 0
-14 -112 173 -563 0
-173 563 0
14 -173 0
112 -173 0
174 -175 -182 0
174 -182 778 0
-174 182 0
-174 175 -778 0
115 116 175 0
175 176 840 0
115 175 176 0
116 175 840 0
-115 -175 -840 0
-116 -175 -176 0
-92 176 -839 0
81 92 176 -177 0
92 -176 177 0
-92 -176 839 0
-81 92 -176 0
177 180 181 0
-85 177 178 181 0
-177 -181 0
-177 -178 -180 0
85 -177 -180 0
-80 178 837 0
80 178 179 0
-80 -178 -837 0
80 -178 -179 0
-60 179 -836 0
-179 836 0
60 -179 0
86 180 -582 0
180 -582 838 0
-180 582 0
-86 -180 -838 0
-178 181 582 -757 0
179 181 582 757 0
-181 -582 0
178 -181 -757 0
-179 -181 757 0
176 177 182 0
97 124 182 0
124 176 182 0
97 177 182 0
-124 -177 -182 0
-97 -176 -182 0
183 184 -214 0
183 194 -204 0
183 194 -214 0
183 184 -204 0
-183 -184 -194 0
-183 204 214 0
7 184 -185 0
7 184 193 0
-7 -184 0
-184 185 -193 0
12 -49 185 -186 0
-12 -49 185 -581 0
49 -185 0
12 -185 186 0
-12 -185 581 0
-14 186 -580 0
14 186 -187 0
-14 -186 580 0
14 -186 187 0
41 187 188 192 0
41 187 188 -191 0
-41 -187 0
-187 -188 0
-187 191 -192 0
188 -190 277 -452 0
188 189 277 452 0
-188 -277 0
-188 190 -452 0
-188 -189 452 0
-18 189 -577 0
-189 577 0
18 -189 0
-40 190 578 0
40 189 190 0
-40 -190 -578 0
40 -189 -190 0
-45 190 191 0
45 -191 0
-190 -191 0
47 192 -277 0
192 -277 579 0
-192 277 0
-47 -192 -579 0
-51 187 193 0
186 193 -473 0
-51 193 -473 0
186 187 193 0
51 -186 -193 0
-187 -193 473 0
194 201 203 -778 0
194 195 201 203 0
-194 -203 0
-194 -201 0
-194 -195 778 0
81 195 196 200 0
81 195 196 -199 0
-81 -195 0
-195 -196 0
-195 199 -200 0
196 -198 582 -757 0
196 197 582 757 0
-196 -582 0
-196 198 -757 0
-196 -197 757 0
-60 197 -853 0
-197 853 0
60 -197 0
-80 198 854 0
80 197 198 0
-80 -198 -854 0
80 -197 -198 0
-85 198 199 0
85 -199 0
-198 -199 0
86 200 -582 0
200 -582 855 0
-200 582 0
-86 -200 -855 0
90 -93 201 -202 0
-90 -93 201 -857 0
93 -201 0
90 -201 202 0
-90 -201 857 0
-92 202 -856 0
92 -195 202 0
-92 -202 856 0
92 195 -202 0
95 -202 203 0
-95 -203 0
202 -203 0
204 205 213 778 0
204 -211 213 -778 0
-204 -213 0
-204 -205 778 0
-204 211 -778 0
81 205 206 210 0
81 205 206 -209 0
-81 -205 0
-205 -206 0
-205 209 -210 0
206 -208 582 -757 0
206 207 582 757 0
-206 -582 0
-206 208 -757 0
-206 -207 757 0
-60 207 -586 0
-207 586 0
60 -207 0
-80 208 841 0
80 207 208 0
-80 -208 -841 0
80 -207 -208 0
-85 208 209 0
85 -209 0
-208 -209 0
86 210 -582 0
210 -582 842 0
-210 582 0
-86 -210 -842 0
115 116 211 0
211 212 844 0
115 211 212 0
116 211 844 0
-115 -211 -844 0
-116 -211 -212 0
-92 212 -843 0
92 -205 212 0
-92 -212 843 0
92 205 -212 0
-97 -212 213 0
97 -213 0
212 -213 0
214 -217 -223 0
214 215 -223 -473 0
-214 223 0
-214 -215 217 0
-214 217 473 0
14 215 216 0
-14 -215 0
-215 -216 0
-12 216 480 -568 0
12 -216 0
-216 568 0
-216 -480 0
41 217 218 222 0
41 217 218 -221 0
-41 -217 0
-217 -218 0
-217 221 -222 0
218 -220 277 -452 0
218 219 277 452 0
-218 -277 0
-218 220 -452 0
-218 -219 452 0
-18 219 -281 0
-219 281 0
18 -219 0
-40 220 565 0
40 219 220 0
-40 -220 -565 0
40 -219 -220 0
-45 220 221 0
45 -221 0
-220 -221 0
47 222 -277 0
222 -277 566 0
-222 277 0
-47 -222 -566 0
7 223 -224 0
7 -216 223 0
7 223 473 0
-7 -223 0
216 -223 224 -473 0
108 224 -567 0
14 108 224 0
-108 -224 0
-14 -224 567 0
-165 225 -226 -271 0
-174 225 -226 -271 0
-225 271 0
-225 226 0
165 174 -225 0
226 227 228 238 -247 0
226 227 -228 -238 -247 0
-226 247 0
-226 -228 238 0
-226 -227 0
-226 228 -238 0
-144 -154 227 0
144 -227 0
154 -227 0
228 229 -235 -237 0
228 229 -235 277 0
-228 235 0
-228 -229 0
-228 237 -277 0
229 230 234 0
229 232 234 0
229 -230 232 277 0
-229 -230 -232 0
-229 230 -234 0
-229 -234 -277 0
230 -231 452 453 456 0
-230 231 0
-230 -456 0
-230 -452 0
-230 -453 0
231 454 455 0
-231 -454 0
-231 -455 0
-23 232 -538 0
19 -23 232 233 0
23 -232 0
-232 -233 538 0
-19 -232 538 0
233 288 575 0
-233 -288 0
-233 -575 0
234 396 -576 0
-232 234 -396 0
232 -234 -396 0
-234 396 576 0
9 235 -236 0
8 235 -236 -509 0
-235 236 0
-8 -9 -235 0
-9 -235 509 0
41 55 236 0
41 54 236 0
-41 -236 0
-54 -55 -236 0
46 -234 237 0
-46 -237 0
234 -237 0
238 239 -246 582 0
238 239 -245 -246 0
-238 246 0
-238 -239 0
-238 245 -582 0
239 240 244 0
239 242 244 0
239 -240 242 582 0
-239 -240 -242 0
-239 240 -244 0
-239 -244 -582 0
240 -241 757 758 761 0
-240 241 0
-240 -761 0
-240 -757 0
-240 -758 0
241 759 760 0
-241 -759 0
-241 -760 0
-61 242 -814 0
-61 75 242 243 0
61 -242 0
-242 -243 814 0
-75 -242 814 0
243 593 851 0
-243 -593 0
-243 -851 0
244 701 -852 0
-242 244 -701 0
242 -244 -701 0
-244 701 852 0
87 -244 245 0
-87 -245 0
244 -245 0
81 99 246 0
81 98 246 0
-81 -246 0
-98 -99 -246 0
247 248 249 264 -267 0
247 -248 249 -264 -267 0
-247 267 0
-247 248 -264 0
-247 -249 0
-247 -248 264 0
-61 248 -814 816 0
-248 814 0
-248 -816 0
61 -248 0
249 -250 -258 0
249 250 258 0
-249 250 -258 0
-249 -250 258 0
-235 250 251 0
235 -250 0
-250 -251 0
230 251 -252 0
251 256 257 0
251 -252 256 0
-251 252 -257 0
-230 -251 -256 0
-251 252 -256 0
252 253 -396 0
-23 252 -255 396 0
-252 -253 -396 0
23 -252 396 0
-252 255 396 0
-23 253 -254 0
23 -253 0
-253 254 0
254 -538 -540 0
19 254 538 0
254 -538 -544 0
-19 -254 538 0
-254 -538 540 544 0
255 -538 540 546 0
-255 538 0
-255 -546 0
-255 -540 0
230 256 277 0
-253 256 277 0
-256 -277 0
-230 253 -256 0
46 257 -277 0
-257 277 0
-46 -257 0
240 258 -259 0
258 262 263 0
258 -259 262 0
-258 259 -263 0
-240 -258 -262 0
-258 259 -262 0
259 260 -701 0
-248 259 701 822 0
-259 -260 -701 0
248 -259 701 0
-259 701 -822 0
-61 260 -261 0
61 -260 0
-260 261 0
261 -814 -816 0
75 261 814 0
261 -814 -820 0
-75 -261 814 0
-261 -814 816 820 0
240 262 582 0
-260 262 582 0
-262 -582 0
-240 260 -262 0
87 263 -582 0
-263 582 0
-87 -263 0
-23 -235 264 -265 266 0
-264 265 0
-264 -266 0
23 -264 0
235 -264 0
265 -538 540 0
-265 538 0
-265 -540 0
-46 266 -277 0
-266 277 0
46 -266 0
75 -246 267 -268 -270 0
-75 -267 0
-267 270 0
-267 268 0
246 -267 0
87 268 -269 0
268 -269 582 0
-268 269 0
-87 -268 -582 0
269 -585 -586 0
269 -584 587 0
269 -584 -586 0
269 -585 587 0
-269 586 -587 0
-269 584 585 0
-68 69 270 0
62 69 270 0
-69 -270 0
-62 68 -270 0
-194 204 271 0
-184 214 271 0
-184 204 271 0
-194 214 271 0
184 194 -271 0
-204 -214 -271 0
-8 -10 272 0
8 -272 0
10 -272 0
-31 273 -274 0
-35 273 -274 0
-37 273 -274 0
-273 274 0
31 35 37 -273 0
19 24 -236 274 -275 0
-19 -274 0
-274 275 0
236 -274 0
-24 -274 0
266 275 276 -281 0
266 275 276 282 0
-275 -276 0
-266 -275 0
-275 281 -282 0
276 279 280 0
-276 -279 0
-276 -280 0
1 2 0
-1 -2 0
858 0

